NAME 
ROWS
 N  OBJ
 L  R0      
 E  R1      
 E  R2      
 E  R3      
 E  R4      
 E  R5      
 E  R6      
 E  R7      
 E  R8      
 E  R9      
 E  R10     
 E  R11     
 E  R12     
 E  R13     
 E  R14     
 E  R15     
COLUMNS
    MARKER    'MARKER'                 'INTORG'
    I0(6)     OBJ       -25
    I0(6)     R0        172
    I0(6)     R1        12
    I0(6)     R2        18
    I0(6)     R3        15
    I0(6)     R6        6
    I0(6)     R15       1
    I1(7)     OBJ       -36
    I1(7)     R0        -61
    I1(7)     R1        9
    I1(7)     R3        8
    I1(7)     R4        6
    I1(7)     R5        17
    I1(7)     R6        9
    I1(7)     R15       1
    I2(7)     OBJ       172
    I2(7)     R0        -191
    I2(7)     R1        10
    I2(7)     R2        15
    I2(7)     R3        15
    I2(7)     R5        13
    I2(7)     R6        -1
    I2(7)     R15       1
    I3(6)     OBJ       -140
    I3(6)     R0        10
    I3(6)     R1        12
    I3(6)     R2        8
    I3(6)     R4        7
    I3(6)     R6        5
    I3(6)     R15       1
    I4(8)     OBJ       9
    I4(8)     R0        189
    I4(8)     R1        17
    I4(8)     R2        -1
    I4(8)     R3        4
    I4(8)     R4        12
    I4(8)     R5        7
    I4(8)     R6        17
    I4(8)     R15       1
    I5(7)     OBJ       109
    I5(7)     R0        -127
    I5(7)     R1        3
    I5(7)     R2        8
    I5(7)     R3        8
    I5(7)     R4        2
    I5(7)     R5        2
    I5(7)     R15       1
    MARKER    'MARKER'                 'INTEND'
    C6(13)    OBJ       -8
    C6(13)    R0        9
    C6(13)    R1        19
    C6(13)    R2        5
    C6(13)    R3        12
    C6(13)    R4        15
    C6(13)    R6        5
    C6(13)    R7        15
    C6(13)    R8        18
    C6(13)    R9        16
    C6(13)    R10       13
    C6(13)    R11       16
    C6(13)    R12       8
    C6(13)    R13       15
    C7(13)    OBJ       -7
    C7(13)    R0        5
    C7(13)    R1        16
    C7(13)    R2        17
    C7(13)    R3        11
    C7(13)    R5        5
    C7(13)    R6        11
    C7(13)    R7        4
    C7(13)    R8        17
    C7(13)    R9        4
    C7(13)    R11       14
    C7(13)    R12       14
    C7(13)    R13       3
    C7(13)    R14       11
    C8(13)    OBJ       1
    C8(13)    R0        1
    C8(13)    R1        19
    C8(13)    R2        -1
    C8(13)    R3        14
    C8(13)    R4        16
    C8(13)    R5        11
    C8(13)    R7        2
    C8(13)    R8        15
    C8(13)    R9        10
    C8(13)    R10       3
    C8(13)    R11       10
    C8(13)    R12       5
    C8(13)    R14       16
    C9(11)    OBJ       -1
    C9(11)    R0        6
    C9(11)    R1        9
    C9(11)    R2        1
    C9(11)    R3        6
    C9(11)    R4        12
    C9(11)    R8        15
    C9(11)    R9        15
    C9(11)    R10       4
    C9(11)    R12       1
    C9(11)    R13       4
    C9(11)    R14       8
    C10(14)   OBJ       -6
    C10(14)   R0        -9
    C10(14)   R1        17
    C10(14)   R2        19
    C10(14)   R3        1
    C10(14)   R4        5
    C10(14)   R5        18
    C10(14)   R6        2
    C10(14)   R8        9
    C10(14)   R9        16
    C10(14)   R10       10
    C10(14)   R11       16
    C10(14)   R12       13
    C10(14)   R13       4
    C10(14)   R14       11
    C11(13)   OBJ       -5
    C11(13)   R0        2
    C11(13)   R1        17
    C11(13)   R3        -1
    C11(13)   R4        18
    C11(13)   R5        16
    C11(13)   R6        18
    C11(13)   R7        6
    C11(13)   R8        8
    C11(13)   R9        13
    C11(13)   R11       1
    C11(13)   R12       12
    C11(13)   R13       6
    C11(13)   R14       12
    C12(11)   OBJ       1
    C12(11)   R0        -2
    C12(11)   R1        11
    C12(11)   R2        11
    C12(11)   R3        17
    C12(11)   R4        3
    C12(11)   R6        6
    C12(11)   R7        12
    C12(11)   R8        15
    C12(11)   R10       18
    C12(11)   R12       15
    C12(11)   R14       17
    C13(10)   OBJ       -4
    C13(10)   R0        2
    C13(10)   R1        7
    C13(10)   R4        15
    C13(10)   R5        19
    C13(10)   R6        11
    C13(10)   R7        -1
    C13(10)   R9        17
    C13(10)   R10       11
    C13(10)   R12       17
    C13(10)   R14       12
    C14(11)   OBJ       7
    C14(11)   R0        -4
    C14(11)   R2        17
    C14(11)   R3        17
    C14(11)   R5        1
    C14(11)   R6        17
    C14(11)   R7        9
    C14(11)   R8        12
    C14(11)   R9        1
    C14(11)   R10       14
    C14(11)   R12       8
    C14(11)   R14       16
    C15(1)    R1        1
    C16(1)    R2        1
    C17(1)    R3        1
    C18(1)    R4        1
    C19(1)    R5        1
    C20(1)    R6        1
    C21(1)    R7        1
    C22(1)    R8        1
    C23(1)    R9        1
    C24(1)    R10       1
    C25(1)    R11       1
    C26(1)    R12       1
    C27(1)    R13       1
    C28(1)    R14       1
    C29(1)    R15       1
RHS
    RHS1      R0        -2.1199285946121382e+01
    RHS1      R1        98
    RHS1      R2        83
    RHS1      R3        98
    RHS1      R4        91
    RHS1      R5        55
    RHS1      R6        56
    RHS1      R7        74
    RHS1      R8        82
    RHS1      R9        52
    RHS1      R10       85
    RHS1      R11       62
    RHS1      R12       61
    RHS1      R13       72
    RHS1      R14       99
    RHS1      R15       2
BOUNDS
 UP BND1      I0(6)     1
 UP BND1      I1(7)     1
 UP BND1      I2(7)     1
 UP BND1      I3(6)     1
 UP BND1      I4(8)     1
 UP BND1      I5(7)     1
ENDATA
